bound = 130;
n = 12;
p = 6;
num_edges = 132;
E = array2d(1..num_edges, 1..2, [
1,2
,1,3
,1,4
,1,5
,1,6
,1,7
,1,8
,1,9
,1,10
,1,11
,1,12
,2,1
,2,3
,2,4
,2,5
,2,6
,2,7
,2,8
,2,9
,2,10
,2,11
,2,12
,3,1
,3,2
,3,4
,3,5
,3,6
,3,7
,3,8
,3,9
,3,10
,3,11
,3,12
,4,1
,4,2
,4,3
,4,5
,4,6
,4,7
,4,8
,4,9
,4,10
,4,11
,4,12
,5,1
,5,2
,5,3
,5,4
,5,6
,5,7
,5,8
,5,9
,5,10
,5,11
,5,12
,6,1
,6,2
,6,3
,6,4
,6,5
,6,7
,6,8
,6,9
,6,10
,6,11
,6,12
,7,1
,7,2
,7,3
,7,4
,7,5
,7,6
,7,8
,7,9
,7,10
,7,11
,7,12
,8,1
,8,2
,8,3
,8,4
,8,5
,8,6
,8,7
,8,9
,8,10
,8,11
,8,12
,9,1
,9,2
,9,3
,9,4
,9,5
,9,6
,9,7
,9,8
,9,10
,9,11
,9,12
,10,1
,10,2
,10,3
,10,4
,10,5
,10,6
,10,7
,10,8
,10,9
,10,11
,10,12
,11,1
,11,2
,11,3
,11,4
,11,5
,11,6
,11,7
,11,8
,11,9
,11,10
,11,12
,12,1
,12,2
,12,3
,12,4
,12,5
,12,6
,12,7
,12,8
,12,9
,12,10
,12,11
]);
c=[
27,
42,
27,
27,
42,
26,
45,
44,
25,
26,
37,
27,
19,
11,
4,
18,
13,
27,
25,
2,
5,
23,
42,
19,
15,
16,
4,
17,
10,
8,
21,
17,
14,
27,
11,
15,
7,
16,
3,
19,
17,
11,
5,
13,
27,
4,
16,
7,
16,
10,
24,
21,
5,
2,
20,
42,
18,
4,
16,
16,
18,
14,
11,
20,
17,
18,
26,
13,
17,
3,
10,
18,
20,
18,
13,
8,
12,
45,
27,
10,
19,
24,
14,
20,
3,
29,
24,
10,
44,
25,
8,
17,
21,
11,
18,
3,
26,
21,
10,
25,
2,
21,
11,
5,
20,
13,
29,
26,
6,
24,
26,
5,
17,
5,
2,
17,
8,
24,
21,
6,
18,
37,
23,
14,
13,
20,
18,
12,
10,
10,
24,
18];
